24 4
52 34 60 73 69 67 43 53 31 55 80 28 63 32 30 74 90 98 61 50 12 53 100 52
77 37 78 92 99 70 35 36 27 47 62 31 48 41 30 69 99 112 56 62 12 51 90 47
61 25 72 95 94 78 40 59 17 69 75 27 45 26 39 92 85 112 78 65 37 77 86 49
65 48 63 102 89 88 45 60 35 71 83 49 68 43 53 64 91 106 53 59 9 69 103 39
